20
61.0
0 19 0.92 6.26
1 18 0.97 6.57
2 17 0.68 4.52
3 16 0.88 4.85
4 15 0.76 4.85
5 14 0.97 6.09
6 13 0.88 6.52
7 12 1.1 6.22
8 11 0.91 4.87
9 10 0.98 4.89
10 9 0.86 5.55
11 8 0.59 5.99
12 7 1.05 6.59
13 6 0.98 5.79
14 5 0.97 6.9
15 4 0.82 7.78
16 3 1.19 6.44
17 2 0.69 8.08
18 1 1.11 0.56
